% demand
num_movements = 45;
loading_factor = [1600, 1250, 1150, 1150, 1500, 1600, 1100, 1650, 1150, 1850, 1750, 1950, 1050, 1050, 1950, 1650, 1600, 1750, 1500, 1500, 1950, 1250, 1000, 1500, 1250, 1750, 950, 800, 900, 1700, 1550, 1850, 1350, 850, 1750, 1350, 900, 850, 1450, 1600, 1650, 900, 1250, 800, 1950];
pickup_time = [0, 0, 0, 0, 0, 0, 0, 0, 1, 1, 1, 2, 2, 2, 2, 2, 2, 3, 4, 4, 4, 4, 4, 4, 4, 5, 5, 5, 6, 7, 7, 8, 8, 8, 8, 8, 8, 8, 9, 10, 10, 10, 11, 11, 11];
delivery_time = [1, 1, 1, 1, 2, 2, 2, 3, 2, 2, 2, 3, 5, 3, 4, 4, 4, 4, 5, 5, 7, 5, 5, 6, 5, 8, 8, 8, 8, 8, 8, 9, 11, 9, 12, 12, 12, 10, 11, 11, 12, 12, 12, 12, 12];

% transporter definition
total_capacity = 11000;
num_decks = 4;
capacity = [3000, 3000, 1000, 4000];

% ways out of decks
num_ways_out = 2;
paths_out = array3d(decks, ways_out, decks, [
% ways out of deck d1
2, 4, 0, 0, 3, 4, 0, 0, 

% ways out of deck d2
4, 0, 0, 0, 0, 0, 0, 0,	

% ways out of deck d3
4, 0, 0, 0, 0, 0, 0, 0,	

% ways out of deck d4
0, 0, 0, 0,	0, 0, 0, 0,	

]);

